PRECEDENCE RELATIONS:
jobnr.    #modes  #successors   successors
  1        1        2        13   2   
  2        1        1        3   
  3        1        2        16   4   
  4        1        1        5   
  5        1        2        19   6   
  6        1        1        7   
  7        1        1        8   
  8        1        1        9   
  9        1        1        10   
  10        1        1        11   
  11        1        1        12   
  12        1        1        73   
  13        1        1        14   
  14        1        1        15   
  15        1        2        61   16   
  16        1        1        17   
  17        1        1        18   
  18        1        2        63   22   
  19        1        1        20   
  20        1        1        21   
  21        1        2        65   25   
  22        1        1        23   
  23        1        1        24   
  24        1        2        7   19   
  25        1        1        26   
  26        1        1        27   
  27        1        2        9   28   
  28        1        1        29   
  29        1        1        30   
  30        1        2        11   78   
  31        1        2        43   32   
  32        1        1        33   
  33        1        2        46   34   
  34        1        1        35   
  35        1        2        49   36   
  36        1        1        37   
  37        1        1        38   
  38        1        1        39   
  39        1        1        40   
  40        1        1        41   
  41        1        1        42   
  42        1        1        83   
  43        1        1        44   
  44        1        1        45   
  45        1        2        61   46   
  46        1        1        47   
  47        1        1        48   
  48        1        2        63   52   
  49        1        1        50   
  50        1        1        51   
  51        1        2        65   55   
  52        1        1        53   
  53        1        1        54   
  54        1        2        37   49   
  55        1        1        56   
  56        1        1        57   
  57        1        2        39   58   
  58        1        1        59   
  59        1        1        60   
  60        1        2        41   88   
  61        1        1        62   
  62        1        1        67   
  63        1        1        64   
  64        1        1        69   
  65        1        1        66   
  66        1        1        71   
  67        1        3        22   52   68   
  68        1        1        63   
  69        1        3        25   55   70   
  70        1        1        65   
  71        1        3        28   58   72   
  72        1        1        93   
  73        1        3        74   75   76   
  74        1        1        77   
  75        1        1        77   
  76        1        1        77   
  77        1        1        98   
  78        1        3        79   80   81   
  79        1        1        82   
  80        1        1        82   
  81        1        1        82   
  82        1        1        98   
  83        1        3        84   85   86   
  84        1        1        87   
  85        1        1        87   
  86        1        1        87   
  87        1        1        98   
  88        1        3        89   90   91   
  89        1        1        92   
  90        1        1        92   
  91        1        1        92   
  92        1        1        98   
  93        1        3        94   95   96   
  94        1        1        97   
  95        1        1        97   
  96        1        1        97   
  97        1        1        98   
  98        1          0     
---------dummy line---------
REQUESTS/DURATIONS:
jobnr. mode duration  R 1
---------dummy line---------
  1     1     0     0 
  2     1     100     0 
  3     1     0     0 
  4     1     100     0 
  5     1     0     0 
  6     1     100     0 
  7     1     0     0 
  8     1     200     0 
  9     1     0     0 
  10     1     200     0 
  11     1     0     0 
  12     1     200     0 
  13     1     0     0 
  14     1     300     80 
  15     1     0     0 
  16     1     0     0 
  17     1     300     80 
  18     1     0     0 
  19     1     0     0 
  20     1     300     80 
  21     1     0     0 
  22     1     0     0 
  23     1     400     80 
  24     1     0     0 
  25     1     0     0 
  26     1     400     80 
  27     1     0     0 
  28     1     0     0 
  29     1     400     80 
  30     1     0     0 
  31     1     0     0 
  32     1     500     0 
  33     1     0     0 
  34     1     500     0 
  35     1     0     0 
  36     1     500     0 
  37     1     0     0 
  38     1     600     0 
  39     1     0     0 
  40     1     600     0 
  41     1     0     0 
  42     1     600     0 
  43     1     0     0 
  44     1     700     80 
  45     1     0     0 
  46     1     0     0 
  47     1     700     80 
  48     1     0     0 
  49     1     0     0 
  50     1     700     80 
  51     1     0     0 
  52     1     0     0 
  53     1     800     80 
  54     1     0     0 
  55     1     0     0 
  56     1     800     80 
  57     1     0     0 
  58     1     0     0 
  59     1     800     80 
  60     1     0     0 
  61     1     0     0 
  62     1     900     0 
  63     1     0     0 
  64     1     900     0 
  65     1     0     0 
  66     1     900     0 
  67     1     0     0 
  68     1     1000     0 
  69     1     0     0 
  70     1     1000     0 
  71     1     0     0 
  72     1     1000     0 
  73     1     0     0 
  74     1     334     80 
  75     1     334     80 
  76     1     334     80 
  77     1     0     0 
  78     1     0     0 
  79     1     0     0 
  80     1     0     0 
  81     1     0     0 
  82     1     0     0 
  83     1     0     0 
  84     1     334     80 
  85     1     334     80 
  86     1     334     80 
  87     1     0     0 
  88     1     0     0 
  89     1     0     0 
  90     1     0     0 
  91     1     0     0 
  92     1     0     0 
  93     1     0     0 
  94     1     0     0 
  95     1     0     0 
  96     1     0     0 
  97     1     0     0 
 98      1     0       0 
---------dummy line---------
RESOURCEAVAILABILITIES:
   R 1   
   80   
---------dummy end---------
